sifdecoder -A pc64.lnx.gfo -st   A2NSSSSL

 Problem name: A2NSSSSL

 Double precision version will be formed

 The objective function uses 2 linear groups
 
 There are 20004 linear equality constraints
 
 There are 15004 free variables
 There are 10000 variables bounded only from below 
 There are 35008 fixed variables
 
 
 File successfully decoded
 CUTEST: tools (double precision version) compiled successfully
 CUTEst: ipopt (double precision version) compiled successfully

******************************************************************************
This program contains Ipopt, a library for large-scale nonlinear optimization.
 Ipopt is released as open source code under the Eclipse Public License (EPL).
         For more information visit http://projects.coin-or.org/Ipopt
******************************************************************************

This is Ipopt version trunk, running with linear solver ma57.

Number of nonzeros in equality constraint Jacobian...:    76093
Number of nonzeros in inequality constraint Jacobian.:        0
Number of nonzeros in Lagrangian Hessian.............:    30004

Total number of variables............................:    25004
                     variables with only lower bounds:    10000
                variables with lower and upper bounds:        0
                     variables with only upper bounds:        0
Total number of equality constraints.................:    20004
Total number of inequality constraints...............:        0
        inequality constraints with only lower bounds:        0
   inequality constraints with lower and upper bounds:        0
        inequality constraints with only upper bounds:        0

iter    objective    inf_pr   inf_du lg(mu)  ||d||  lg(rg) alpha_du alpha_pr  ls
   0  4.9999900e-01 6.35e+02 6.34e-01  -1.0 0.00e+00    -  0.00e+00 0.00e+00   0
   1  5.4992764e-01 6.34e+02 1.09e+00  -1.0 1.32e+02  -4.0 9.95e-04 2.00e-03h  1
   2  6.5142586e-01 6.33e+02 1.09e+00  -1.0 1.12e+02  -4.5 1.71e-03 1.68e-03f  1
   3  7.9167369e-01 6.32e+02 1.09e+00  -1.0 7.83e+01  -5.0 1.88e-03 1.85e-03f  1
   4  9.6020519e-01 6.30e+02 1.09e+00  -1.0 3.72e+01  -5.4 2.08e-03 2.03e-03f  1
   5  1.1775507e+00 6.29e+02 1.08e+00  -1.0 2.65e+01  -5.9 2.36e-03 2.48e-03f  1
   6  1.4556037e+00 6.27e+02 1.08e+00  -1.0 2.81e+01  -6.4 2.89e-03 3.03e-03f  1
   7  1.8646006e+00 6.24e+02 1.25e+00  -1.0 4.19e+01  -6.9 3.23e-03 4.24e-03f  1
   8  2.5851642e+00 6.20e+02 2.09e+00  -1.0 2.92e+01  -7.3 5.02e-03 7.01e-03f  1
   9  3.4200229e+00 6.15e+02 2.06e+00  -1.0 2.79e+01  -7.8 6.70e-03 7.55e-03f  1
iter    objective    inf_pr   inf_du lg(mu)  ||d||  lg(rg) alpha_du alpha_pr  ls
  10  5.0327182e+00 6.07e+02 2.17e+00  -1.0 2.71e+01  -8.3 9.27e-03 1.33e-02f  1
  11  8.5104964e+00 5.92e+02 3.23e+00  -1.0 2.68e+01  -8.8 1.62e-02 2.52e-02f  1
  12  1.7745255e+01 5.59e+02 4.95e+00  -1.0 2.60e+01  -9.2 2.56e-02 5.49e-02f  1
  13  2.4250951e+02 2.22e+02 2.07e+01  -1.0 2.45e+01  -9.7 6.67e-02 6.03e-01f  1
  14  2.4191525e+02 1.88e+02 1.96e+01  -1.0 3.40e+01 -10.2 4.25e-01 1.54e-01f  1
  15  2.7924501e+02 1.01e+02 1.48e+01  -1.0 7.96e+00 -10.7 6.41e-01 4.63e-01f  1
  16  3.3035631e+02 4.21e+01 2.63e+02  -1.0 4.46e+00 -11.2 1.10e-01 5.83e-01f  1
  17  3.4645732e+02 2.75e+01 3.15e+02  -1.0 4.92e+00 -11.6 9.39e-01 3.47e-01h  1
  18  3.4870481e+02 2.24e+01 2.65e+02  -1.0 1.45e+02 -12.1 2.04e-01 1.86e-01f  1
  19  3.5664734e+02 1.31e+01 2.11e+02  -1.0 9.50e+01 -12.6 3.81e-01 4.13e-01f  1
iter    objective    inf_pr   inf_du lg(mu)  ||d||  lg(rg) alpha_du alpha_pr  ls
  20  3.5969569e+02 1.17e+01 3.94e+02  -1.0 1.67e+02 -13.1 5.20e-01 1.09e-01f  1
  21  3.6457788e+02 9.81e+00 4.16e+02  -1.0 8.65e+01 -13.5 3.19e-01 1.62e-01f  1
  22  3.7285719e+02 6.55e+00 3.16e+02  -1.0 2.38e+03 -14.0 3.92e-01 3.32e-01f  1
  23  3.8402939e+02 6.73e-06 6.86e+02  -1.0 1.31e+03 -14.5 3.85e-01 1.00e+00h  1
  24  3.8848291e+02 3.54e-05 7.31e-04  -1.0 3.28e-01  -2.7 1.00e+00 1.00e+00f  1
  25  2.9552921e+01 1.21e-07 2.13e-02  -2.5 4.45e-01  -3.1 1.00e+00 1.00e+00f  1
  26  4.5343172e+00 9.62e-09 6.52e-05  -3.8 2.64e-01  -3.6 1.00e+00 1.00e+00f  1
Reallocating memory for MA57: lfact (2381848)
  27  7.4987404e-01 5.17e-09 2.03e-05  -5.7 2.46e-01  -4.1 1.00e+00 1.00e+00f  1
Reallocating memory for MA57: lfact (9567387)
  28  1.1675196e-01 7.52e-12 3.09e+05  -5.7 1.09e-01  -4.6 2.69e-02 1.00e+00f  1
  29  4.0173790e-02 4.37e-12 1.73e-07  -5.7 1.89e-02  -5.0 1.00e+00 1.00e+00f  1
iter    objective    inf_pr   inf_du lg(mu)  ||d||  lg(rg) alpha_du alpha_pr  ls
  30  1.1056219e-02 1.97e-12 5.28e-07  -5.7 1.73e-01  -5.5 1.00e+00 1.00e+00f  1
  31  7.3871779e-03 9.99e-13 1.38e-07  -5.7 1.36e-01  -6.0 1.00e+00 1.00e+00f  1
  32  1.0970144e-04 4.59e-12 1.15e+01  -8.6 9.15e-02  -6.5 9.12e-01 9.71e-01f  1
  33 -2.0847511e-04 1.06e-09 5.62e+00  -8.6 1.03e-01  -6.9 6.13e-01 9.21e-01f  1
  34 -2.3413051e-04 1.58e-09 3.94e+00  -8.6 2.03e-01  -7.4 9.00e-01 7.41e-01f  1
  35 -2.5956526e-04 1.52e-09 1.19e-01  -8.6 2.77e-02  -6.1 9.63e-01 9.64e-01f  1
  36 -2.6107256e-04 1.24e-09 2.87e+00  -8.6 6.82e-02  -6.6 8.35e-01 1.00e+00f  1
  37 -2.5625252e-04 1.01e-09 6.54e+00  -8.6 1.90e-01  -7.0 6.19e-01 1.00e+00h  1
  38 -2.5405372e-04 9.06e-10 9.01e+00  -8.6 5.63e-01  -7.5 5.34e-01 1.00e+00h  1
  39 -2.5242150e-04 8.19e-10 9.63e+00  -8.6 1.68e+00  -8.0 5.32e-01 1.00e+00h  1
iter    objective    inf_pr   inf_du lg(mu)  ||d||  lg(rg) alpha_du alpha_pr  ls
  40 -2.6144861e-04 6.99e-10 1.63e+01  -8.6 5.06e+00  -8.5 4.96e-01 1.00e+00H  1
  41 -2.8333543e-04 6.08e-10 1.35e+01  -8.6 1.50e+01  -9.0 7.16e-01 1.00e+00H  1
  42 -2.8114860e-04 7.49e-10 9.02e+01  -8.6 4.10e+01  -9.4 1.00e+00 4.31e-02h  2
  43 -2.8123328e-04 6.77e-10 3.24e+01  -8.6 3.00e-01  -7.2 6.00e-01 1.00e+00h  1
  44 -2.7975686e-04 6.25e-10 1.70e+01  -8.6 8.20e-01  -7.7 4.81e-01 1.00e+00h  1
  45 -2.8345793e-04 5.83e-10 1.40e+01  -8.6 2.43e+00  -8.2 5.04e-01 1.00e+00H  1
  46 -2.9213082e-04 5.47e-10 1.01e+01  -8.6 7.24e+00  -8.6 5.89e-01 1.00e+00H  1
  47 -2.9276787e-04 5.63e-10 6.90e+00  -8.6 2.76e+00  -8.2 6.59e-01 8.74e-01H  1
  48 -2.9326015e-04 1.00e-09 1.68e-08  -8.6 8.12e+00  -8.7 1.00e+00 1.00e+00f  1
  49 -3.1403725e-04 7.62e-10 1.69e-08  -9.0 3.07e+00  -8.3 1.00e+00 1.00e+00h  1
iter    objective    inf_pr   inf_du lg(mu)  ||d||  lg(rg) alpha_du alpha_pr  ls
  50 -3.1683424e-04 9.91e-10 1.69e-08  -9.0 9.21e+00  -8.7 1.00e+00 1.00e+00h  1
  51 -3.1831537e-04 9.44e-10 5.80e-05  -9.0 3.45e+00  -8.3 1.73e-01 1.73e-01h  1
  52 -3.3017831e-04 1.06e-09 1.69e-08  -9.0 1.03e+01  -8.8 1.00e+00 1.00e+00f  1
  53 -3.3717119e-04 8.34e-10 2.79e-03  -9.0 3.88e+00  -8.4 7.60e-01 7.60e-01h  1
  54 -3.4816429e-04 1.13e-09 1.70e-08  -9.0 1.17e+01  -8.8 1.00e+00 1.00e+00f  1
  55 -3.5335607e-04 1.35e-09 6.96e+00  -9.0 3.56e+01  -9.3 2.47e-01 1.30e-01h  1
  56 -3.6586551e-04 7.66e-10 5.29e+00  -9.0 1.63e+00  -8.0 4.38e-01 1.00e+00f  1
  57 -3.6736768e-04 5.53e-10 2.09e+01  -9.0 4.95e+00  -8.5 2.44e-01 1.00e+00H  1
  58 -3.6818127e-04 6.02e-10 1.20e+01  -9.0 1.44e+01  -8.9 2.35e-01 6.73e-02h  1
  59 -3.6818293e-04 6.02e-10 1.20e+01  -9.0 1.31e+03  -7.6 3.95e-04 5.74e-05f  1
iter    objective    inf_pr   inf_du lg(mu)  ||d||  lg(rg) alpha_du alpha_pr  ls
  60 -3.6823359e-04 6.00e-10 9.36e+00  -9.0 1.07e+00  -8.1 3.53e-01 4.98e-01f  1
  61 -3.6977317e-04 6.62e-10 4.74e+00  -9.0 2.09e+00  -8.6 4.78e-01 3.39e-01f  1
  62 -3.6975930e-04 6.57e-10 4.48e+00  -9.0 3.59e-01  -7.2 5.61e-01 2.75e-02f  6
  63 -3.6914955e-04 5.14e-10 2.06e+00  -9.0 6.88e-01  -7.7 3.31e-01 8.29e-01h  1
  64 -3.7259663e-04 6.05e-10 6.35e-01  -9.0 2.61e+00  -8.2 9.51e-01 1.00e+00f  1
  65 -3.7496429e-04 6.80e-10 2.68e-01  -9.0 8.20e+00  -8.7 2.57e-01 2.45e-01h  1
  66 -3.7494728e-04 6.81e-10 3.76e-01  -9.0 1.52e+03  -9.1 2.61e-03 6.44e-04f  3
  67 -3.7465856e-04 4.66e-10 6.60e-01  -9.0 4.08e-02  -6.0 9.24e-01 1.00e+00h  1
  68 -3.7367563e-04 4.32e-10 7.32e-01  -9.0 3.98e-02  -6.5 9.14e-01 1.00e+00h  1
  69 -3.7363268e-04 4.33e-10 2.10e+00  -9.0 1.66e-01  -7.0 7.22e-01 9.62e-01h  1
iter    objective    inf_pr   inf_du lg(mu)  ||d||  lg(rg) alpha_du alpha_pr  ls
  70 -3.7362092e-04 4.35e-10 4.29e+00  -9.0 4.65e-01  -7.4 8.30e-01 2.50e-01f  3
  71 -3.7297018e-04 4.04e-10 4.28e+00  -9.0 1.40e+00  -7.9 6.39e-01 1.00e+00H  1
  72 -3.7623585e-04 5.19e-10 1.98e+00  -9.0 4.34e+00  -8.4 6.94e-01 4.57e-01h  1
  73 -3.8824673e-04 9.19e-10 5.43e+00  -9.0 1.29e+01  -8.9 7.20e-01 5.30e-01f  1
  74 -3.8823846e-04 9.19e-10 7.26e+00  -9.0 1.60e+00  -3.9 6.00e-01 1.11e-05f 17
  75 -3.8349011e-04 6.61e-10 1.78e-08  -9.0 4.55e-04  -4.4 1.00e+00 1.00e+00h  1
  76 -3.8298982e-04 4.22e-10 1.71e-08  -9.0 1.31e-03  -4.9 1.00e+00 1.00e+00h  1
  77 -3.8324806e-04 4.22e-10 1.71e-08  -9.0 3.95e-03  -5.4 1.00e+00 1.00e+00h  1
  78 -3.8228256e-04 4.05e-10 1.71e-08  -9.0 1.18e-02  -5.8 1.00e+00 1.00e+00h  1
  79 -3.8176148e-04 3.96e-10 1.71e-08  -9.0 3.55e-02  -6.3 1.00e+00 1.00e+00h  1
iter    objective    inf_pr   inf_du lg(mu)  ||d||  lg(rg) alpha_du alpha_pr  ls
  80 -3.8169069e-04 3.99e-10 1.72e-08  -9.0 1.07e-01  -6.8 1.00e+00 1.00e+00h  1
  81 -3.8149609e-04 3.91e-10 3.96e+00  -9.0 3.20e-01  -7.3 7.28e-01 1.00e+00H  1
  82 -3.8220199e-04 3.87e-10 5.81e+00  -9.0 9.60e-01  -7.7 6.94e-01 1.00e+00H  1
  83 -3.8463949e-04 4.63e-10 2.36e+00  -9.0 2.85e+00  -8.2 4.94e-01 4.37e-01h  1
  84 -3.8464549e-04 4.63e-10 2.35e+00  -9.0 1.13e+03  -8.7 2.08e-04 2.07e-04f  1
  85 -3.8466275e-04 4.64e-10 2.35e+00  -9.0 1.52e+03  -9.2 2.01e-04 2.00e-04f  1
  86 -3.8608906e-04 5.05e-10 2.20e+00  -9.0 5.80e+00  -8.8 7.01e-02 7.05e-02f  1
  87 -3.8849397e-04 5.78e-10 2.14e+00  -9.0 2.75e+01  -9.2 2.75e-02 2.75e-02f  1
  88 -3.9354911e-04 7.08e-10 1.63e+00  -9.0 1.11e+01  -8.8 2.36e-01 2.36e-01f  1
  89 -3.9357114e-04 7.10e-10 1.56e+00  -9.0 1.14e+03  -9.3 2.33e-03 5.83e-04f  3
iter    objective    inf_pr   inf_du lg(mu)  ||d||  lg(rg) alpha_du alpha_pr  ls
  90 -3.9720251e-04 7.96e-10 1.94e+00  -9.0 4.46e+00  -8.9 2.49e-01 1.71e-01h  1
  91 -3.9720253e-04 7.96e-10 1.94e+00  -9.0 1.71e+03  -9.3 2.44e-07 2.55e-07f  2
  92 -3.9720253e-04 7.96e-10 1.92e+00  -9.0 2.18e+03  -6.2 6.32e-04 4.04e-07f  2
  93 -3.9478665e-04 4.53e-10 2.58e-01  -9.0 5.96e-01  -6.7 9.66e-01 1.00e+00h  1
  94 -3.9102006e-04 3.93e-10 4.61e-01  -9.0 2.90e-01  -7.2 7.03e-01 7.60e-01h  1
  95 -3.9215231e-04 4.25e-10 1.76e-08  -9.0 7.48e-01  -7.6 1.00e+00 1.00e+00f  1
  96 -3.9357584e-04 4.35e-10 3.65e-03  -9.0 2.24e+00  -8.1 5.25e-01 5.26e-01H  1
  97 -4.0434242e-04 7.15e-10 5.87e-04  -9.0 6.73e+00  -8.6 7.49e-01 7.49e-01f  1
  98 -4.0461239e-04 7.74e-10 1.24e+01  -9.0 1.66e+01  -9.1 3.71e-01 5.13e-02f  3
  99 -4.0609191e-04 7.86e-10 1.02e+01  -9.0 3.69e+00  -8.6 9.13e-02 1.53e-01h  1
iter    objective    inf_pr   inf_du lg(mu)  ||d||  lg(rg) alpha_du alpha_pr  ls
 100 -4.0609349e-04 7.86e-10 1.02e+01  -9.0 5.43e+01  -9.1 6.36e-05 4.02e-05f  2
 101 -4.0608041e-04 7.85e-10 1.01e+01  -9.0 5.14e+01  -6.0 3.14e-02 1.91e-03h  5
 102 -4.0580341e-04 7.73e-10 8.18e+00  -9.0 1.02e+00  -5.6 7.20e-01 3.57e-02h  1
 103 -4.0579648e-04 7.73e-10 7.33e+00  -9.0 2.37e-01  -6.0 1.00e+00 1.56e-03f 10
 104 -4.0380249e-04 5.03e-10 1.82e+00  -9.0 1.84e-01  -5.6 9.87e-01 7.60e-01h  1
 105 -4.0298940e-04 4.72e-10 5.17e+00  -9.0 2.02e-02  -6.1 1.00e+00 2.50e-01h  3
 106 -4.0050900e-04 3.81e-10 1.76e-08  -9.0 6.31e-02  -6.6 1.00e+00 1.00e+00h  1
 107 -4.0015355e-04 3.80e-10 1.76e-08  -9.0 1.90e-01  -7.0 1.00e+00 1.00e+00h  1
 108 -4.0100524e-04 4.01e-10 1.76e-08  -9.0 5.70e-01  -7.5 1.00e+00 1.00e+00h  1
 109 -4.0426873e-04 4.72e-10 1.76e-08  -9.0 1.71e+00  -8.0 1.00e+00 1.00e+00h  1
iter    objective    inf_pr   inf_du lg(mu)  ||d||  lg(rg) alpha_du alpha_pr  ls
 110 -4.1476350e-04 6.97e-10 1.76e-08  -9.0 5.14e+00  -8.5 1.00e+00 1.00e+00h  1
 111 -4.1801994e-04 7.75e-10 3.86e-06  -9.0 1.55e+01  -8.9 1.04e-01 1.04e-01h  1
 112 -4.1875485e-04 8.26e-10 3.57e+00  -9.0 4.71e+01  -9.4 4.01e-02 1.00e-02f  3
 113 -4.1588227e-04 4.73e-10 1.12e+00  -9.0 8.29e-02  -7.2 8.28e-01 1.00e+00h  1
 114 -4.1015799e-04 3.79e-10 5.21e-09  -9.0 2.40e-01  -7.7 1.00e+00 1.00e+00h  1
 115 -4.1061793e-04 3.68e-10 6.49e-03  -9.0 4.22e-02  -6.3 8.88e-01 8.89e-01h  1
 116 -4.1077793e-04 3.66e-10 1.78e-08  -9.0 1.15e-01  -6.8 1.00e+00 1.00e+00f  1
 117 -4.1121401e-04 3.74e-10 3.01e-04  -9.0 3.45e-01  -7.3 8.49e-01 8.49e-01h  1
 118 -4.1325729e-04 4.16e-10 1.78e-08  -9.0 1.04e+00  -7.8 1.00e+00 1.00e+00f  1
 119 -4.1599173e-04 4.72e-10 1.09e-05  -9.0 3.11e+00  -8.2 4.15e-01 4.15e-01h  1
iter    objective    inf_pr   inf_du lg(mu)  ||d||  lg(rg) alpha_du alpha_pr  ls
 120 -4.2134946e-04 5.94e-10 9.56e-06  -9.0 9.34e+00  -8.7 2.29e-01 2.29e-01f  1
 121 -4.2265148e-04 6.88e-10 2.40e+00  -9.0 2.82e+01  -9.2 7.97e-02 3.98e-02f  2
 122 -4.1930953e-04 6.52e-10 5.48e+00  -9.0 2.13e-01  -4.3 8.20e-01 1.25e-01h  4
 123 -4.1676062e-04 3.72e-10 2.54e-07  -9.0 1.37e-02  -4.7 1.00e+00 1.00e+00h  1
 124 -4.1721351e-04 3.56e-10 4.08e-08  -9.0 6.61e-03  -5.2 1.00e+00 1.00e+00h  1
 125 -4.1663970e-04 3.47e-10 1.82e-08  -9.0 8.84e-03  -5.7 1.00e+00 1.00e+00h  1
 126 -4.1653662e-04 3.44e-10 1.78e-08  -9.0 2.60e-02  -6.2 1.00e+00 1.00e+00h  1
 127 -4.1632678e-04 3.33e-10 2.32e+00  -9.0 7.81e-02  -6.6 8.11e-01 1.00e+00H  1
 128 -4.1638365e-04 3.25e-10 2.61e+00  -9.0 2.34e-01  -7.1 8.18e-01 1.00e+00H  1
 129 -4.1801114e-04 3.58e-10 2.59e-02  -9.0 7.02e-01  -7.6 9.88e-01 9.87e-01h  1
iter    objective    inf_pr   inf_du lg(mu)  ||d||  lg(rg) alpha_du alpha_pr  ls
 130 -4.1802586e-04 3.60e-10 1.34e-01  -9.0 1.48e+01  -8.1 3.71e-02 1.86e-02f  2
 131 -4.1687306e-04 3.14e-10 3.57e-08  -9.0 2.47e-02  -5.8 1.00e+00 1.00e+00h  1
 132 -4.1686511e-04 3.15e-10 1.33e-01  -9.0 5.37e-02  -6.3 8.92e-01 8.68e-01h  1
 133 -4.1703015e-04 3.18e-10 1.79e-08  -9.0 1.11e-01  -6.8 1.00e+00 1.00e+00f  1
 134 -4.1765720e-04 3.29e-10 1.79e-08  -9.0 3.35e-01  -7.3 1.00e+00 1.00e+00h  1
 135 -4.1979804e-04 3.73e-10 1.79e-08  -9.0 1.01e+00  -7.7 1.00e+00 1.00e+00h  1
 136 -4.2082090e-04 3.95e-10 2.88e-05  -9.0 3.02e+00  -8.2 1.47e-01 1.47e-01h  1
 137 -4.2459572e-04 5.37e-10 4.49e-03  -9.0 9.05e+00  -8.7 2.28e-01 2.29e-01f  1
 138 -4.2642372e-04 5.41e-10 3.74e-03  -9.0 3.92e+00  -8.3 2.07e-01 2.07e-01f  1
 139 -4.3177162e-04 6.38e-10 3.16e-04  -9.0 1.05e+01  -8.8 1.81e-01 1.80e-01f  1
iter    objective    inf_pr   inf_du lg(mu)  ||d||  lg(rg) alpha_du alpha_pr  ls
 140 -4.3188294e-04 6.42e-10 3.08e-04  -9.0 1.35e+02  -9.2 1.44e-03 1.44e-03f  1
 141 -4.3251431e-04 6.54e-10 3.43e-04  -9.0 1.07e+01  -8.8 2.33e-02 2.33e-02f  1
 142 -4.4331297e-04 9.28e-10 2.89e+00  -9.0 3.54e+01  -9.3 1.18e-01 8.25e-02f  1
 143 -4.4329903e-04 9.26e-10 6.63e+00  -9.0 1.48e+00  -6.1 6.57e-01 2.59e-03f  7
 144 -4.3172212e-04 3.68e-10 6.65e-02  -9.0 7.24e-02  -6.6 1.00e+00 9.90e-01h  1
 145 -4.3219546e-04 3.85e-10 1.84e-08  -9.0 2.32e-01  -7.1 1.00e+00 1.00e+00f  1
 146 -4.3153145e-04 3.83e-10 1.81e-08  -9.0 6.86e-01  -7.6 1.00e+00 1.00e+00h  1
 147 -4.3508294e-04 4.51e-10 1.67e-05  -9.0 2.06e+00  -8.1 9.80e-01 9.80e-01h  1
 148 -4.3508294e-04 4.51e-10 1.27e-05  -9.0 2.65e+01  -8.5 5.97e-07 3.00e-07f  2
 149 -4.3508294e-04 4.51e-10 4.79e-03  -9.0 1.94e+02  -4.5 6.33e-04 5.92e-08f  2
iter    objective    inf_pr   inf_du lg(mu)  ||d||  lg(rg) alpha_du alpha_pr  ls
 150 -4.3163888e-04 3.20e-10 4.56e-08  -9.0 4.27e-03  -5.0 1.00e+00 1.00e+00h  1
 151 -4.3051756e-04 2.99e-10 1.83e-08  -9.0 5.14e-03  -5.4 1.00e+00 1.00e+00h  1
 152 -4.3045261e-04 2.97e-10 1.15e-01  -9.0 2.14e-02  -5.9 4.58e-01 4.80e-01h  1
 153 -4.3043964e-04 2.96e-10 4.03e+00  -9.0 4.50e-02  -6.4 1.00e+00 2.50e-01f  3
 154 -4.3063153e-04 3.00e-10 1.19e-08  -9.0 9.01e-02  -6.9 1.00e+00 1.00e+00h  1
 155 -4.3031759e-04 2.91e-10 2.00e-08  -9.0 7.12e-03  -5.6 1.00e+00 1.00e+00h  1
 156 -4.3020244e-04 2.90e-10 1.76e-08  -9.0 1.87e-02  -6.0 1.00e+00 1.00e+00h  1
 157 -4.2998582e-04 2.84e-10 1.09e+00  -9.0 6.06e-02  -6.5 8.96e-01 1.00e+00H  1
 158 -4.2959802e-04 2.74e-10 2.90e+00  -9.0 1.57e-01  -7.0 7.42e-01 1.00e+00H  1
 159 -4.2983444e-04 2.78e-10 1.69e+00  -9.0 5.04e-01  -7.5 2.79e-01 2.17e-01H  1
iter    objective    inf_pr   inf_du lg(mu)  ||d||  lg(rg) alpha_du alpha_pr  ls
 160 -4.2985515e-04 2.78e-10 4.27e+00  -9.0 9.50e-02  -7.0 9.68e-01 1.19e-01f  4
 161 -4.2941138e-04 2.64e-10 1.67e-08  -9.0 8.46e-03  -5.7 1.00e+00 1.00e+00h  1
 162 -4.2939174e-04 2.62e-10 1.58e-08  -9.0 2.40e-02  -6.2 1.00e+00 1.00e+00h  1
 163 -4.2939365e-04 2.62e-10 1.36e-01  -9.0 1.15e-01  -6.7 6.14e-02 3.27e-02h  2
 164 -4.2918443e-04 2.55e-10 7.91e-08  -9.0 1.69e-02  -5.3 1.00e+00 1.00e+00h  1
 165 -4.2904292e-04 2.59e-10 1.15e-08  -9.0 7.34e-03  -5.8 1.00e+00 1.00e+00h  1
 166 -4.2905358e-04 2.58e-10 2.34e+00  -9.0 6.19e-02  -6.3 1.00e+00 5.02e-01h  1
 167 -4.2928194e-04 2.52e-10 1.96e-08  -9.0 1.13e-01  -6.8 1.00e+00 1.00e+00f  1
 168 -4.2974232e-04 2.57e-10 1.75e-01  -9.0 2.87e-01  -7.2 5.22e-01 5.58e-01h  1
 169 -4.3062733e-04 2.69e-10 4.03e-02  -9.0 9.47e-01  -7.7 5.47e-01 5.42e-01F  1
iter    objective    inf_pr   inf_du lg(mu)  ||d||  lg(rg) alpha_du alpha_pr  ls
 170 -4.3063063e-04 2.69e-10 4.02e-02  -9.0 3.19e+01  -8.2 3.31e-04 3.39e-04f  1
 171 -4.3063079e-04 2.69e-10 4.03e-02  -9.0 7.01e+02  -7.8 1.42e-05 6.95e-06f  2
 172 -4.2995462e-04 2.46e-10 1.26e-07  -9.0 3.46e-01  -6.4 1.00e+00 1.00e+00h  1
 173 -4.3018094e-04 2.49e-10 2.93e-02  -9.0 4.61e-02  -6.9 8.84e-01 8.90e-01h  1
 174 -4.3133917e-04 2.73e-10 1.49e+00  -9.0 4.20e-01  -7.4 7.02e-01 1.00e+00f  1
 175 -4.3261579e-04 3.00e-10 3.75e-01  -9.0 1.50e+00  -7.9 4.58e-01 3.53e-01h  1
 176 -4.3802497e-04 4.21e-10 6.44e-01  -9.0 4.10e+00  -8.3 3.76e-01 4.28e-01f  1
 177 -4.4813148e-04 6.51e-10 3.98e-01  -9.0 1.24e+01  -8.8 2.59e-01 2.41e-01f  1
 178 -4.5755800e-04 8.80e-10 1.20e+01  -9.0 3.72e+01  -9.3 1.95e-01 6.04e-02f  1
 179 -4.5754746e-04 8.79e-10 9.46e+00  -9.0 2.26e-01  -7.1 6.95e-01 1.95e-03f 10
iter    objective    inf_pr   inf_du lg(mu)  ||d||  lg(rg) alpha_du alpha_pr  ls
 180 -4.4640299e-04 3.91e-10 1.87e-08  -9.0 6.55e-01  -7.5 1.00e+00 1.00e+00h  1
 181 -4.4953842e-04 4.57e-10 1.86e-08  -9.0 1.95e+00  -8.0 1.00e+00 1.00e+00h  1
 182 -4.5609840e-04 5.88e-10 7.24e-06  -9.0 5.88e+00  -8.5 4.86e-01 4.86e-01h  1
 183 -4.5609840e-04 5.88e-10 7.13e-06  -9.0 8.44e+02  -9.0 1.29e-08 6.55e-09h  2
 184 -4.5609840e-04 5.88e-10 7.11e-06  -9.0 4.68e+02  -4.9 5.06e-10 7.73e-09f  2
 185 -4.5609840e-04 5.88e-10 3.63e-02  -9.0 2.71e+01  -4.5 5.75e-03 2.69e-07h  2
 186 -4.5008803e-04 3.60e-10 7.19e-03  -9.0 1.03e-03  -5.0 9.99e-01 1.00e+00h  1
 187 -4.4485616e-04 2.64e-10 6.77e-07  -9.0 2.48e-02  -4.6 1.00e+00 1.00e+00h  1
 188 -4.4455268e-04 2.49e-10 1.25e+00  -9.0 2.27e-02  -5.0 9.03e-01 6.23e-01h  1
 189 -4.4454527e-04 2.48e-10 4.49e+00  -9.0 5.64e-03  -5.5 1.00e+00 1.56e-02f  7
iter    objective    inf_pr   inf_du lg(mu)  ||d||  lg(rg) alpha_du alpha_pr  ls
 190 -4.4410394e-04 2.50e-10 1.62e-08  -9.0 1.60e-02  -6.0 1.00e+00 1.00e+00h  1
 191 -4.4391709e-04 2.55e-10 8.17e-02  -9.0 6.16e-02  -6.5 1.00e+00 9.91e-01H  1
 192 -4.4444725e-04 2.44e-10 1.66e-08  -9.0 1.48e-01  -6.9 1.00e+00 1.00e+00f  1
 193 -4.4490759e-04 2.50e-10 1.46e-01  -9.0 6.36e-01  -7.4 3.57e-01 3.28e-01h  1
 194 -4.4635339e-04 2.51e-10 4.07e-03  -9.0 1.50e+00  -7.9 9.08e-01 9.09e-01F  1
 195 -4.4635339e-04 2.51e-10 4.07e-03  -9.0 1.30e+01  -8.4 6.73e-07 3.37e-07f  2
 196 -4.4635339e-04 2.51e-10 6.61e-03  -9.0 4.84e+02  -4.3 3.90e-04 1.04e-08f  2
 197 -4.4555712e-04 2.51e-10 7.54e-09  -9.0 4.97e-04  -4.8 1.00e+00 1.00e+00h  1

Number of Iterations....: 197

                                   (scaled)                 (unscaled)
Objective...............:  -4.4555711982497678e-04   -4.4555711982497678e-04
Dual infeasibility......:   7.5369413664322012e-09    7.5369413664322012e-09
Constraint violation....:   2.5084798948330055e-10    2.5084798948330055e-10
Complementarity.........:   1.0479113214163049e-09    1.0479113214163049e-09
Overall NLP error.......:   7.5369413664322012e-09    7.5369413664322012e-09


Number of objective function evaluations             = 333
Number of objective gradient evaluations             = 198
Number of equality constraint evaluations            = 333
Number of inequality constraint evaluations          = 0
Number of equality constraint Jacobian evaluations   = 198
Number of inequality constraint Jacobian evaluations = 0
Number of Lagrangian Hessian evaluations             = 197
Total CPU secs in IPOPT (w/o function evaluations)   =     89.129
Total CPU secs in NLP function evaluations           =     11.068

EXIT: Optimal Solution Found.

************************ CUTEst statistics ************************


 Package used            :  IPOPT
 Problem                 :  A2NSSSSL  
 # variables             =           60012
 # constraints           =           20004
 # objective functions   =        0.5320000E+03
 # objective gradients   =        0.1990000E+03
 # objective Hessians    =        0.1980000E+03
 # Hessian-vector prdct  =        0.0000000E+00
 # constraints functions =        0.5330000E+03
 # constraints gradients =        0.2000000E+03
 # constraints Hessians  =        0.1980000E+03
 Exit code               =               0
 Final f                 =       -4.4555711982497678D-04
 Bounds feasibility      =        9.9991502490451902D-09
 Set up time             =            0.77 seconds
 Solve time              =          196.58 seconds


******************************************************************

